\Problem name: compact

Minimize
OBJROW: C
Subject To
ord(0,1):  - x(0,1) + x(0,2) >= 7
ord(0,2):  x(0,0) - x(0,2) >= 7
ord(1,1):  x(1,0) - x(1,1) >= 4
ord(1,2):  - x(1,0) + x(1,2) >= 3
ord(2,1):  - x(2,1) + x(2,2) >= 7
ord(2,2):  x(2,0) - x(2,2) >= 6
triangle2(0,1,0):  y(0,1,0) + y(1,0,0) = 1
triangle2(0,1,1):  y(0,1,1) + y(1,0,1) = 1
triangle2(0,1,2):  y(0,1,2) + y(1,0,2) = 1
triangle2(0,2,0):  y(0,2,0) + y(2,0,0) = 1
triangle2(0,2,1):  y(0,2,1) + y(2,0,1) = 1
triangle2(0,2,2):  y(0,2,2) + y(2,0,2) = 1
triangle2(1,2,0):  y(1,2,0) + y(2,1,0) = 1
triangle2(1,2,1):  y(1,2,1) + y(2,1,1) = 1
triangle2(1,2,2):  y(1,2,2) + y(2,1,2) = 1
MCLinV(0,1,0):  - x(0,0) + v(0,1,0)p - v(0,1,0)n + x(1,0) = -3
MCLinV(1,0,0):  x(0,0) + v(1,0,0)p - v(1,0,0)n - x(1,0) = -1
MCLin1(0,1,0):  u(0,1,0)p - u(0,1,0)n >= 0
MCLin2(0,1,0):  23 y(1,0,0) + u(0,1,0)p - u(0,1,0)n >= 0
MCLin3(0,1,0):  -36 y(1,0,0) - v(0,1,0)p + v(0,1,0)n + u(0,1,0)p - u(0,1,0)n >= -36
MCLin4(0,1,0):  -36 y(1,0,0) + u(0,1,0)p - u(0,1,0)n <= 0
MCLin5(0,1,0):  23 y(1,0,0) - v(0,1,0)p + v(0,1,0)n + u(0,1,0)p - u(0,1,0)n <= 23
MCLin6(1,0,0):  u(1,0,0)p - u(1,0,0)n >= 0
MCLin7(1,0,0):  40 y(0,1,0) + u(1,0,0)p - u(1,0,0)n >= 0
MCLin8(1,0,0):  -19 y(0,1,0) - v(1,0,0)p + v(1,0,0)n + u(1,0,0)p - u(1,0,0)n >= -19
MCLin9(1,0,0):  -19 y(0,1,0) + u(1,0,0)p - u(1,0,0)n <= 0
MCLin10(1,0,0):  40 y(0,1,0) - v(1,0,0)p + v(1,0,0)n + u(1,0,0)p - u(1,0,0)n <= 40
MCLinV(0,1,1):  - x(0,1) + v(0,1,1)p - v(0,1,1)n + x(1,1) = -4
MCLinV(1,0,1):  x(0,1) + v(1,0,1)p - v(1,0,1)n - x(1,1) = -7
MCLin1(0,1,1):  u(0,1,1)p - u(0,1,1)n >= 0
MCLin2(0,1,1):  34 y(1,0,1) + u(0,1,1)p - u(0,1,1)n >= 0
MCLin3(0,1,1):  -25 y(1,0,1) - v(0,1,1)p + v(0,1,1)n + u(0,1,1)p - u(0,1,1)n >= -25
MCLin4(0,1,1):  -25 y(1,0,1) + u(0,1,1)p - u(0,1,1)n <= 0
MCLin5(0,1,1):  34 y(1,0,1) - v(0,1,1)p + v(0,1,1)n + u(0,1,1)p - u(0,1,1)n <= 34
MCLin6(1,0,1):  u(1,0,1)p - u(1,0,1)n >= 0
MCLin7(1,0,1):  36 y(0,1,1) + u(1,0,1)p - u(1,0,1)n >= 0
MCLin8(1,0,1):  -23 y(0,1,1) - v(1,0,1)p + v(1,0,1)n + u(1,0,1)p - u(1,0,1)n >= -23
MCLin9(1,0,1):  -23 y(0,1,1) + u(1,0,1)p - u(1,0,1)n <= 0
MCLin10(1,0,1):  36 y(0,1,1) - v(1,0,1)p + v(1,0,1)n + u(1,0,1)p - u(1,0,1)n <= 36
MCLinV(0,1,2):  - x(0,2) + v(0,1,2)p - v(0,1,2)n + x(1,2) = -7
MCLinV(1,0,2):  x(0,2) + v(1,0,2)p - v(1,0,2)n - x(1,2) = -7
MCLin1(0,1,2):  u(0,1,2)p - u(0,1,2)n >= 0
MCLin2(0,1,2):  37 y(1,0,2) + u(0,1,2)p - u(0,1,2)n >= 0
MCLin3(0,1,2):  -22 y(1,0,2) - v(0,1,2)p + v(0,1,2)n + u(0,1,2)p - u(0,1,2)n >= -22
MCLin4(0,1,2):  -22 y(1,0,2) + u(0,1,2)p - u(0,1,2)n <= 0
MCLin5(0,1,2):  37 y(1,0,2) - v(0,1,2)p + v(0,1,2)n + u(0,1,2)p - u(0,1,2)n <= 37
MCLin6(1,0,2):  u(1,0,2)p - u(1,0,2)n >= 0
MCLin7(1,0,2):  36 y(0,1,2) + u(1,0,2)p - u(1,0,2)n >= 0
MCLin8(1,0,2):  -23 y(0,1,2) - v(1,0,2)p + v(1,0,2)n + u(1,0,2)p - u(1,0,2)n >= -23
MCLin9(1,0,2):  -23 y(0,1,2) + u(1,0,2)p - u(1,0,2)n <= 0
MCLin10(1,0,2):  36 y(0,1,2) - v(1,0,2)p + v(1,0,2)n + u(1,0,2)p - u(1,0,2)n <= 36
MCLinV(0,2,0):  - x(0,0) + v(0,2,0)p - v(0,2,0)n + x(2,0) = -2
MCLinV(2,0,0):  x(0,0) + v(2,0,0)p - v(2,0,0)n - x(2,0) = -1
MCLin1(0,2,0):  u(0,2,0)p - u(0,2,0)n >= 0
MCLin2(0,2,0):  30 y(2,0,0) + u(0,2,0)p - u(0,2,0)n >= 0
MCLin3(0,2,0):  -28 y(2,0,0) - v(0,2,0)p + v(0,2,0)n + u(0,2,0)p - u(0,2,0)n >= -28
MCLin4(0,2,0):  -28 y(2,0,0) + u(0,2,0)p - u(0,2,0)n <= 0
MCLin5(0,2,0):  30 y(2,0,0) - v(0,2,0)p + v(0,2,0)n + u(0,2,0)p - u(0,2,0)n <= 30
MCLin6(2,0,0):  u(2,0,0)p - u(2,0,0)n >= 0
MCLin7(2,0,0):  31 y(0,2,0) + u(2,0,0)p - u(2,0,0)n >= 0
MCLin8(2,0,0):  -27 y(0,2,0) - v(2,0,0)p + v(2,0,0)n + u(2,0,0)p - u(2,0,0)n >= -27
MCLin9(2,0,0):  -27 y(0,2,0) + u(2,0,0)p - u(2,0,0)n <= 0
MCLin10(2,0,0):  31 y(0,2,0) - v(2,0,0)p + v(2,0,0)n + u(2,0,0)p - u(2,0,0)n <= 31
MCLinV(0,2,1):  - x(0,1) + v(0,2,1)p - v(0,2,1)n + x(2,1) = -7
MCLinV(2,0,1):  x(0,1) + v(2,0,1)p - v(2,0,1)n - x(2,1) = -7
MCLin1(0,2,1):  u(0,2,1)p - u(0,2,1)n >= 0
MCLin2(0,2,1):  36 y(2,0,1) + u(0,2,1)p - u(0,2,1)n >= 0
MCLin3(0,2,1):  -22 y(2,0,1) - v(0,2,1)p + v(0,2,1)n + u(0,2,1)p - u(0,2,1)n >= -22
MCLin4(0,2,1):  -22 y(2,0,1) + u(0,2,1)p - u(0,2,1)n <= 0
MCLin5(0,2,1):  36 y(2,0,1) - v(0,2,1)p + v(0,2,1)n + u(0,2,1)p - u(0,2,1)n <= 36
MCLin6(2,0,1):  u(2,0,1)p - u(2,0,1)n >= 0
MCLin7(2,0,1):  36 y(0,2,1) + u(2,0,1)p - u(2,0,1)n >= 0
MCLin8(2,0,1):  -22 y(0,2,1) - v(2,0,1)p + v(2,0,1)n + u(2,0,1)p - u(2,0,1)n >= -22
MCLin9(2,0,1):  -22 y(0,2,1) + u(2,0,1)p - u(2,0,1)n <= 0
MCLin10(2,0,1):  36 y(0,2,1) - v(2,0,1)p + v(2,0,1)n + u(2,0,1)p - u(2,0,1)n <= 36
MCLinV(0,2,2):  - x(0,2) + v(0,2,2)p - v(0,2,2)n + x(2,2) = -6
MCLinV(2,0,2):  x(0,2) + v(2,0,2)p - v(2,0,2)n - x(2,2) = -7
MCLin1(0,2,2):  u(0,2,2)p - u(0,2,2)n >= 0
MCLin2(0,2,2):  35 y(2,0,2) + u(0,2,2)p - u(0,2,2)n >= 0
MCLin3(0,2,2):  -23 y(2,0,2) - v(0,2,2)p + v(0,2,2)n + u(0,2,2)p - u(0,2,2)n >= -23
MCLin4(0,2,2):  -23 y(2,0,2) + u(0,2,2)p - u(0,2,2)n <= 0
MCLin5(0,2,2):  35 y(2,0,2) - v(0,2,2)p + v(0,2,2)n + u(0,2,2)p - u(0,2,2)n <= 35
MCLin6(2,0,2):  u(2,0,2)p - u(2,0,2)n >= 0
MCLin7(2,0,2):  36 y(0,2,2) + u(2,0,2)p - u(2,0,2)n >= 0
MCLin8(2,0,2):  -22 y(0,2,2) - v(2,0,2)p + v(2,0,2)n + u(2,0,2)p - u(2,0,2)n >= -22
MCLin9(2,0,2):  -22 y(0,2,2) + u(2,0,2)p - u(2,0,2)n <= 0
MCLin10(2,0,2):  36 y(0,2,2) - v(2,0,2)p + v(2,0,2)n + u(2,0,2)p - u(2,0,2)n <= 36
MCLinV(1,2,0):  - x(1,0) + v(1,2,0)p - v(1,2,0)n + x(2,0) = -2
MCLinV(2,1,0):  x(1,0) + v(2,1,0)p - v(2,1,0)n - x(2,0) = -3
MCLin1(1,2,0):  u(1,2,0)p - u(1,2,0)n >= 0
MCLin2(1,2,0):  40 y(2,1,0) + u(1,2,0)p - u(1,2,0)n >= 0
MCLin3(1,2,0):  -19 y(2,1,0) - v(1,2,0)p + v(1,2,0)n + u(1,2,0)p - u(1,2,0)n >= -19
MCLin4(1,2,0):  -19 y(2,1,0) + u(1,2,0)p - u(1,2,0)n <= 0
MCLin5(1,2,0):  40 y(2,1,0) - v(1,2,0)p + v(1,2,0)n + u(1,2,0)p - u(1,2,0)n <= 40
MCLin6(2,1,0):  u(2,1,0)p - u(2,1,0)n >= 0
MCLin7(2,1,0):  24 y(1,2,0) + u(2,1,0)p - u(2,1,0)n >= 0
MCLin8(2,1,0):  -35 y(1,2,0) - v(2,1,0)p + v(2,1,0)n + u(2,1,0)p - u(2,1,0)n >= -35
MCLin9(2,1,0):  -35 y(1,2,0) + u(2,1,0)p - u(2,1,0)n <= 0
MCLin10(2,1,0):  24 y(1,2,0) - v(2,1,0)p + v(2,1,0)n + u(2,1,0)p - u(2,1,0)n <= 24
MCLinV(1,2,1):  - x(1,1) + v(1,2,1)p - v(1,2,1)n + x(2,1) = -7
MCLinV(2,1,1):  x(1,1) + v(2,1,1)p - v(2,1,1)n - x(2,1) = -4
MCLin1(1,2,1):  u(1,2,1)p - u(1,2,1)n >= 0
MCLin2(1,2,1):  36 y(2,1,1) + u(1,2,1)p - u(1,2,1)n >= 0
MCLin3(1,2,1):  -23 y(2,1,1) - v(1,2,1)p + v(1,2,1)n + u(1,2,1)p - u(1,2,1)n >= -23
MCLin4(1,2,1):  -23 y(2,1,1) + u(1,2,1)p - u(1,2,1)n <= 0
MCLin5(1,2,1):  36 y(2,1,1) - v(1,2,1)p + v(1,2,1)n + u(1,2,1)p - u(1,2,1)n <= 36
MCLin6(2,1,1):  u(2,1,1)p - u(2,1,1)n >= 0
MCLin7(2,1,1):  34 y(1,2,1) + u(2,1,1)p - u(2,1,1)n >= 0
MCLin8(2,1,1):  -25 y(1,2,1) - v(2,1,1)p + v(2,1,1)n + u(2,1,1)p - u(2,1,1)n >= -25
MCLin9(2,1,1):  -25 y(1,2,1) + u(2,1,1)p - u(2,1,1)n <= 0
MCLin10(2,1,1):  34 y(1,2,1) - v(2,1,1)p + v(2,1,1)n + u(2,1,1)p - u(2,1,1)n <= 34
MCLinV(1,2,2):  - x(1,2) + v(1,2,2)p - v(1,2,2)n + x(2,2) = -6
MCLinV(2,1,2):  x(1,2) + v(2,1,2)p - v(2,1,2)n - x(2,2) = -7
MCLin1(1,2,2):  u(1,2,2)p - u(1,2,2)n >= 0
MCLin2(1,2,2):  35 y(2,1,2) + u(1,2,2)p - u(1,2,2)n >= 0
MCLin3(1,2,2):  -24 y(2,1,2) - v(1,2,2)p + v(1,2,2)n + u(1,2,2)p - u(1,2,2)n >= -24
MCLin4(1,2,2):  -24 y(2,1,2) + u(1,2,2)p - u(1,2,2)n <= 0
MCLin5(1,2,2):  35 y(2,1,2) - v(1,2,2)p + v(1,2,2)n + u(1,2,2)p - u(1,2,2)n <= 35
MCLin6(2,1,2):  u(2,1,2)p - u(2,1,2)n >= 0
MCLin7(2,1,2):  37 y(1,2,2) + u(2,1,2)p - u(2,1,2)n >= 0
MCLin8(2,1,2):  -22 y(1,2,2) - v(2,1,2)p + v(2,1,2)n + u(2,1,2)p - u(2,1,2)n >= -22
MCLin9(2,1,2):  -22 y(1,2,2) + u(2,1,2)p - u(2,1,2)n <= 0
MCLin10(2,1,2):  37 y(1,2,2) - v(2,1,2)p + v(2,1,2)n + u(2,1,2)p - u(2,1,2)n <= 37
makespan(0):  C - x(0,0) >= 1
makespan(1):  C - x(1,2) >= 7
makespan(2):  C - x(2,0) >= 2
cut_clique_1(0,0):  0.00215 x(0,0) + 0.07456 x(2,0) >= 1
cut_clique_1(1,0):  0.00215 x(0,0) + 0.07449 x(2,0) >= 1
cut_clique_1(2,0):  0.00213 x(0,0) + 0.07449 x(2,0) >= 1
cut_clique_1(3,0):  0.00129 x(0,0) + 0.07550 x(2,0) >= 1
cut_clique_1(4,0):  0.05489 x(0,0) + 0.02874 x(1,0) + 0.00834 x(2,0) >= 1
cut_clique_1(5,0):  0.05489 x(0,0) + 0.02903 x(1,0) + 0.00834 x(2,0) >= 1
cut_clique_1(6,0):  0.06496 x(0,0) + 0.00613 x(2,0) >= 1
cut_clique_1(7,0):  0.06560 x(0,0) + 0.00613 x(2,0) >= 1
cut_clique_1(8,0):  0.06560 x(0,0) + 0.00607 x(2,0) >= 1
cut_clique_1(9,0):  0.06560 x(0,0) + 0.00576 x(2,0) >= 1
cut_clique_1(10,0):  0.05601 x(0,0) + 0.01639 x(2,0) >= 1
cut_clique_1(11,0):  0.05601 x(0,0) + 0.01655 x(2,0) >= 1
cut_clique_1(12,0):  0.05562 x(0,0) + 0.01492 x(2,0) >= 1
cut_clique_1(13,0):  0.05639 x(0,0) + 0.01445 x(2,0) >= 1
cut_clique_1(14,0):  0.05692 x(0,0) + 0.01437 x(2,0) >= 1
cut_clique_1(15,0):  0.05692 x(0,0) + 0.01480 x(2,0) >= 1
cut_clique_1(16,0):  0.05692 x(0,0) + 0.01465 x(2,0) >= 1
cut_clique_1(17,0):  0.05692 x(0,0) + 0.01407 x(2,0) >= 1
cut_clique_1(18,0):  0.05812 x(0,0) + 0.01262 x(2,0) >= 1
cut_clique_1(19,0):  0.07095 x(0,0) + 0.00050 x(2,0) >= 1
cut_clique_1(20,0):  0.01651 x(0,0) + 0.00250 x(1,0) + 0.05771 x(2,0) >= 1
cut_clique_1(21,0):  0.01651 x(0,0) + 0.00213 x(1,0) + 0.05771 x(2,0) >= 1
cut_clique_1(22,0):  0.01651 x(0,0) + 0.00200 x(1,0) + 0.05771 x(2,0) >= 1
cut_clique_1(23,0):  0.01766 x(0,0) + 0.00194 x(1,0) + 0.05724 x(2,0) >= 1
cut_clique_1(24,0):  0.01763 x(0,0) + 0.00072 x(1,0) + 0.05729 x(2,0) >= 1
cut_clique_1(25,0):  0.01527 x(0,0) + 0.00070 x(1,0) + 0.06025 x(2,0) >= 1
cut_clique_1(26,0):  0.01518 x(0,0) + 0.00054 x(1,0) + 0.06025 x(2,0) >= 1
cut_clique_1(27,0):  0.01503 x(0,0) + 0.00054 x(1,0) + 0.06025 x(2,0) >= 1
cut_clique_1(28,0):  0.01503 x(0,0) + 0.00046 x(1,0) + 0.06025 x(2,0) >= 1
cut_clique_1(29,0):  0.01344 x(0,0) + 0.06201 x(2,0) >= 1
cut_clique_1(30,0):  0.01371 x(0,0) + 0.06201 x(2,0) >= 1
cut_clique_1(31,0):  0.01192 x(0,0) + 0.06325 x(2,0) >= 1
cut_clique_1(32,0):  0.01242 x(0,0) + 0.06325 x(2,0) >= 1
cut_clique_1(33,0):  0.01242 x(0,0) + 0.06262 x(2,0) >= 1
cut_clique_1(34,0):  0.03265 x(0,0) + 0.04066 x(2,0) >= 1
cut_clique_1(35,0):  0.03363 x(0,0) + 0.04066 x(2,0) >= 1
cut_clique_1(36,0):  0.03418 x(0,0) + 0.03965 x(2,0) >= 1
cut_clique_1(37,0):  0.03316 x(0,0) + 0.03965 x(2,0) >= 1
cut_clique_1(38,0):  0.03442 x(0,0) + 0.03949 x(2,0) >= 1
cut_clique_1(0,1):  0.95856 x(0,1) + 0.98937 x(1,1) + 0.97671 x(2,1) >= 1
cut_clique_1(1,1):  0.95104 x(0,1) + 0.97542 x(1,1) + 0.99029 x(2,1) >= 1
cut_clique_1(2,1):  0.97572 x(0,1) + 0.97123 x(1,1) + 0.97774 x(2,1) >= 1
cut_clique_1(3,1):  0.97154 x(0,1) + 0.98058 x(1,1) + 0.96632 x(2,1) >= 1
cut_clique_1(4,1):  0.95784 x(0,1) + 0.98609 x(1,1) + 0.97094 x(2,1) >= 1
cut_clique_1(5,1):  0.97044 x(0,1) + 0.94812 x(1,1) + 0.99398 x(2,1) >= 1
cut_clique_1(6,1):  0.98530 x(0,1) + 0.98463 x(1,1) + 0.96138 x(2,1) >= 1
cut_clique_1(7,1):  0.99876 x(0,1) + 0.93837 x(1,1) + 0.97555 x(2,1) >= 1
cut_clique_1(8,1):  0.95168 x(0,1) + 0.99425 x(1,1) + 0.99321 x(2,1) >= 1
cut_clique_1(9,1):  0.97938 x(0,1) + 0.98998 x(1,1) + 0.96683 x(2,1) >= 1
cut_clique_1(10,1):  0.99876 x(0,1) + 0.95752 x(1,1) + 0.99546 x(2,1) >= 1
cut_clique_1(11,1):  0.97273 x(0,1) + 0.99732 x(1,1) + 0.99605 x(2,1) >= 1
cut_clique_1(12,1):  0.99902 x(0,1) + 0.93942 x(1,1) + 0.97705 x(2,1) >= 1
cut_clique_1(13,1):  0.97938 x(0,1) + 0.98998 x(1,1) + 0.99583 x(2,1) >= 1
cut_clique_1(14,1):  0.96947 x(0,1) + 0.94812 x(1,1) + 0.99398 x(2,1) >= 1
cut_clique_1(15,1):  0.97656 x(0,1) + 0.99610 x(1,1) + 0.95536 x(2,1) >= 1
cut_clique_1(16,1):  0.99328 x(0,1) + 0.94804 x(1,1) + 0.97738 x(2,1) >= 1
cut_clique_1(17,1):  0.98803 x(0,1) + 0.98925 x(1,1) + 0.99561 x(2,1) >= 1
cut_clique_1(18,1):  0.94376 x(0,1) + 0.99453 x(1,1) + 0.97394 x(2,1) >= 1
cut_clique_1(19,1):  0.98791 x(0,1) + 0.98570 x(1,1) + 0.96725 x(2,1) >= 1
cut_clique_1(20,1):  0.93853 x(0,1) + 0.99686 x(1,1) + 0.97680 x(2,1) >= 1
cut_clique_1(21,1):  0.99663 x(0,1) + 0.98628 x(1,1) + 0.99285 x(2,1) >= 1
cut_clique_1(22,1):  0.97801 x(0,1) + 0.99066 x(1,1) + 0.97190 x(2,1) >= 1
cut_clique_1(23,1):  0.99813 x(0,1) + 0.94877 x(1,1) + 0.98956 x(2,1) >= 1
cut_clique_1(24,1):  0.98255 x(0,1) + 0.97516 x(1,1) + 0.96448 x(2,1) >= 1
cut_clique_1(25,1):  0.98857 x(0,1) + 0.97358 x(1,1) + 0.97088 x(2,1) >= 1
cut_clique_1(26,1):  0.99362 x(0,1) + 0.99529 x(1,1) + 0.96697 x(2,1) >= 1
cut_clique_1(27,1):  0.96252 x(0,1) + 0.97051 x(1,1) + 0.98956 x(2,1) >= 1
cut_clique_1(28,1):  0.94792 x(0,1) + 0.99686 x(1,1) + 0.97680 x(2,1) >= 1
cut_clique_1(29,1):  0.99902 x(0,1) + 0.97279 x(1,1) + 0.97705 x(2,1) >= 1
cut_clique_1(30,1):  0.93041 x(0,1) + 0.98998 x(1,1) + 0.99583 x(2,1) >= 1
cut_clique_1(31,1):  0.96936 x(0,1) + 0.98911 x(1,1) + 0.95451 x(2,1) >= 1
cut_clique_1(32,1):  0.96880 x(0,1) + 0.97358 x(1,1) + 0.97088 x(2,1) >= 1
cut_clique_1(33,1):  0.98208 x(0,1) + 0.97196 x(1,1) + 0.98138 x(2,1) >= 1
cut_clique_1(34,1):  0.99876 x(0,1) + 0.99467 x(1,1) + 0.96212 x(2,1) >= 1
cut_clique_1(35,1):  0.99692 x(0,1) + 0.95583 x(1,1) + 0.98458 x(2,1) >= 1
cut_clique_1(36,1):  0.99876 x(0,1) + 0.93837 x(1,1) + 0.99546 x(2,1) >= 1
cut_clique_1(37,1):  0.96461 x(0,1) + 0.98973 x(1,1) + 0.99111 x(2,1) >= 1
cut_clique_1(38,1):  0.98015 x(0,1) + 0.95760 x(1,1) + 0.98404 x(2,1) >= 1
cut_clique_1(39,1):  0.94454 x(0,1) + 0.97890 x(1,1) + 0.99754 x(2,1) >= 1
cut_clique_1(40,1):  0.97576 x(0,1) + 0.99453 x(1,1) + 0.97394 x(2,1) >= 1
cut_clique_1(41,1):  0.99362 x(0,1) + 0.97577 x(1,1) + 0.96697 x(2,1) >= 1
cut_clique_1(42,1):  0.98197 x(0,1) + 0.98912 x(1,1) + 0.98001 x(2,1) >= 1
cut_clique_1(43,1):  0.99813 x(0,1) + 0.94877 x(1,1) + 0.99360 x(2,1) >= 1
cut_clique_1(44,1):  0.98530 x(0,1) + 0.99168 x(1,1) + 0.94248 x(2,1) >= 1
cut_clique_1(45,1):  0.97133 x(0,1) + 0.97255 x(1,1) + 0.98458 x(2,1) >= 1
cut_clique_1(46,1):  0.97044 x(0,1) + 0.95760 x(1,1) + 0.98404 x(2,1) >= 1
cut_clique_1(47,1):  0.96760 x(0,1) + 0.98628 x(1,1) + 0.99285 x(2,1) >= 1
cut_clique_1(48,1):  0.98775 x(0,1) + 0.96442 x(1,1) + 0.96341 x(2,1) >= 1
cut_clique_1(49,1):  0.96819 x(0,1) + 0.96775 x(1,1) + 0.99360 x(2,1) >= 1
cut_clique_1(0,2):  0.07948 x(1,2) + 0.03464 x(2,2) >= 1
cut_clique_1(1,2):  0.07948 x(1,2) + 0.03225 x(2,2) >= 1
cut_clique_1(2,2):  0.07849 x(1,2) + 0.03355 x(2,2) >= 1
cut_clique_1(3,2):  0.07624 x(1,2) + 0.03355 x(2,2) >= 1
cut_clique_1(4,2):  0.07849 x(1,2) + 0.03515 x(2,2) >= 1
cut_clique_1(5,2):  0.07928 x(1,2) + 0.03355 x(2,2) >= 1
cut_clique_1(6,2):  0.07013 x(1,2) + 0.04455 x(2,2) >= 1
cut_clique_1(7,2):  0.08049 x(1,2) + 0.03388 x(2,2) >= 1
cut_clique_1(8,2):  0.08049 x(1,2) + 0.03151 x(2,2) >= 1
cut_clique_1(9,2):  0.08167 x(1,2) + 0.03132 x(2,2) >= 1
cut_clique_1(10,2):  0.08249 x(1,2) + 0.03163 x(2,2) >= 1
cut_clique_1(11,2):  0.07968 x(1,2) + 0.03423 x(2,2) >= 1
cut_clique_1(12,2):  0.07889 x(1,2) + 0.03423 x(2,2) >= 1
cut_clique_1(13,2):  0.08001 x(1,2) + 0.03448 x(2,2) >= 1
cut_clique_1(14,2):  0.07948 x(1,2) + 0.03395 x(2,2) >= 1
cut_clique_1(15,2):  0.07292 x(1,2) + 0.03575 x(2,2) >= 1
cut_clique_1(16,2):  0.07652 x(1,2) + 0.03722 x(2,2) >= 1
cut_clique_1(17,2):  0.07040 x(1,2) + 0.03722 x(2,2) >= 1
cut_clique_1(18,2):  0.07040 x(1,2) + 0.03647 x(2,2) >= 1
cut_clique_1(19,2):  0.07040 x(1,2) + 0.03830 x(2,2) >= 1
cut_clique_1(20,2):  0.07040 x(1,2) + 0.03868 x(2,2) >= 1
cut_clique_1(21,2):  0.06969 x(1,2) + 0.03868 x(2,2) >= 1
cut_clique_1(22,2):  0.08001 x(1,2) + 0.03163 x(2,2) >= 1
cut_clique_1(23,2):  0.07849 x(1,2) + 0.03481 x(2,2) >= 1
cut_clique_1(24,2):  0.07537 x(1,2) + 0.03868 x(2,2) >= 1
cut_clique_1(25,2):  0.07160 x(1,2) + 0.03868 x(2,2) >= 1
cut_clique_1(26,2):  0.06945 x(1,2) + 0.03868 x(2,2) >= 1
cut_clique_1(27,2):  0.07868 x(1,2) + 0.03225 x(2,2) >= 1
cut_clique_1(28,2):  0.07456 x(1,2) + 0.03868 x(2,2) >= 1
cut_clique_1(29,2):  0.07456 x(1,2) + 0.03945 x(2,2) >= 1
cut_clique_1(30,2):  0.07456 x(1,2) + 0.03866 x(2,2) >= 1
cut_clique_1(31,2):  0.07456 x(1,2) + 0.03634 x(2,2) >= 1
cut_clique_1(32,2):  0.07456 x(1,2) + 0.03743 x(2,2) >= 1
cut_clique_1(33,2):  0.07219 x(1,2) + 0.03542 x(2,2) >= 1
cut_clique_1(34,2):  0.07520 x(1,2) + 0.03542 x(2,2) >= 1
cut_clique_1(35,2):  0.06304 x(1,2) + 0.04008 x(2,2) >= 1
cut_clique_1(36,2):  0.07792 x(1,2) + 0.03464 x(2,2) >= 1
cut_clique_1(37,2):  0.07219 x(1,2) + 0.03542 x(2,2) >= 1
cut_clique_1(38,2):  0.07013 x(1,2) + 0.04248 x(2,2) >= 1
cut_clique_1(39,2):  0.07219 x(1,2) + 0.03578 x(2,2) >= 1
cut_clique_1(40,2):  0.06493 x(1,2) + 0.04248 x(2,2) >= 1
cut_clique_1(41,2):  0.07701 x(1,2) + 0.03355 x(2,2) >= 1
cut_clique_1(42,2):  0.07849 x(1,2) + 0.03289 x(2,2) >= 1
cut_clique_1(43,2):  0.07849 x(1,2) + 0.03322 x(2,2) >= 1
cut_clique_1(44,2):  0.07701 x(1,2) + 0.03495 x(2,2) >= 1
cut_clique_1(45,2):  0.07378 x(1,2) + 0.04008 x(2,2) >= 1
cut_clique_1(46,2):  0.07083 x(1,2) + 0.04008 x(2,2) >= 1
cut_clique_1(47,2):  0.08249 x(1,2) + 0.03132 x(2,2) >= 1
cut_clique_1(48,2):  0.06304 x(1,2) + 0.04248 x(2,2) >= 1
cut_clique_1(49,2):  0.07849 x(1,2) + 0.03223 x(2,2) >= 1
cut_clique_2(0,1):  0.87592 x(0,1) + 0.78002 x(1,1) >= 1
cut_clique_2(1,1):  0.97227 x(0,1) + 0.85022 x(1,1) >= 1
cut_clique_2(2,1):  0.85546 x(0,1) + 0.91967 x(1,1) >= 1
cut_clique_2(3,1):  0.85875 x(0,1) + 0.91967 x(1,1) >= 1
cut_clique_2(4,1):  0.95357 x(0,1) + 0.90333 x(1,1) >= 1
cut_clique_2(5,1):  0.98691 x(0,1) + 0.69184 x(1,1) >= 1
cut_clique_2(6,1):  0.93537 x(0,1) + 0.82051 x(1,1) >= 1
cut_clique_2(7,1):  0.99230 x(0,1) + 0.72117 x(1,1) >= 1
cut_clique_2(8,1):  0.90095 x(0,1) + 0.90333 x(1,1) >= 1
cut_clique_2(9,1):  0.79890 x(0,1) + 0.95852 x(1,1) >= 1
cut_clique_2(10,1):  0.86662 x(0,1) + 0.85482 x(1,1) >= 1
cut_clique_2(11,1):  0.97227 x(0,1) + 0.78002 x(1,1) >= 1
cut_clique_2(12,1):  0.89083 x(0,1) + 0.83050 x(1,1) >= 1
cut_clique_2(13,1):  0.78380 x(0,1) + 0.98188 x(1,1) >= 1
cut_clique_2(14,1):  0.81164 x(0,1) + 0.84056 x(1,1) >= 1
cut_clique_2(15,1):  0.73499 x(0,1) + 0.95852 x(1,1) >= 1
cut_clique_2(16,1):  0.89203 x(0,1) + 0.90333 x(1,1) >= 1
cut_clique_2(17,1):  0.87592 x(0,1) + 0.85530 x(1,1) >= 1
cut_clique_2(18,1):  0.93537 x(0,1) + 0.83050 x(1,1) >= 1
cut_clique_2(19,1):  0.92341 x(0,1) + 0.73682 x(1,1) >= 1
cut_clique_2(20,1):  0.86662 x(0,1) + 0.93936 x(1,1) >= 1
cut_clique_2(21,1):  0.78380 x(0,1) + 0.90333 x(1,1) >= 1
cut_clique_2(22,1):  0.94403 x(0,1) + 0.90333 x(1,1) >= 1
cut_clique_2(23,1):  0.94403 x(0,1) + 0.80396 x(1,1) >= 1
cut_clique_2(24,1):  0.88293 x(0,1) + 0.90333 x(1,1) >= 1
cut_clique_2(25,1):  0.79084 x(0,1) + 0.88222 x(1,1) >= 1
cut_clique_2(26,1):  0.93537 x(0,1) + 0.79661 x(1,1) >= 1
cut_clique_2(27,1):  0.81838 x(0,1) + 0.90333 x(1,1) >= 1
cut_clique_2(28,1):  0.83374 x(0,1) + 0.91967 x(1,1) >= 1
cut_clique_2(29,1):  0.86662 x(0,1) + 0.85397 x(1,1) >= 1
cut_clique_2(30,1):  0.84963 x(0,1) + 0.80396 x(1,1) >= 1
cut_clique_2(31,1):  0.79948 x(0,1) + 0.90333 x(1,1) >= 1
cut_clique_2(32,1):  0.85875 x(0,1) + 0.85530 x(1,1) >= 1
cut_clique_2(33,1):  0.83219 x(0,1) + 0.95852 x(1,1) >= 1
cut_clique_2(34,1):  0.87592 x(0,1) + 0.78790 x(1,1) >= 1
cut_clique_2(35,1):  0.72349 x(0,1) + 0.95903 x(1,1) >= 1
cut_clique_2(36,1):  0.85546 x(0,1) + 0.90724 x(1,1) >= 1
cut_clique_2(37,1):  0.81164 x(0,1) + 0.87418 x(1,1) >= 1
cut_clique_2(38,1):  0.70409 x(0,1) + 0.94862 x(1,1) >= 1
cut_clique_2(39,1):  0.92795 x(0,1) + 0.83050 x(1,1) >= 1
cut_clique_2(40,1):  0.78380 x(0,1) + 0.90915 x(1,1) >= 1
cut_clique_2(41,1):  0.80563 x(0,1) + 0.88615 x(1,1) >= 1
cut_clique_2(42,1):  0.72665 x(0,1) + 0.95903 x(1,1) >= 1
cut_clique_2(43,1):  0.85546 x(0,1) + 0.98890 x(1,1) >= 1
cut_clique_2(44,1):  0.87592 x(0,1) + 0.80398 x(1,1) >= 1
cut_clique_2(45,1):  0.75704 x(0,1) + 0.90724 x(1,1) >= 1
cut_clique_2(46,1):  0.93537 x(0,1) + 0.90524 x(1,1) >= 1
cut_clique_2(47,1):  0.77846 x(0,1) + 0.91967 x(1,1) >= 1
cut_clique_2(48,1):  0.79403 x(0,1) + 0.91967 x(1,1) >= 1
cut_clique_2(49,1):  0.89449 x(0,1) + 0.85022 x(1,1) >= 1
cut_clique_2(0,2):  0.03448 x(0,2) + 0.07394 x(1,2) >= 1
cut_clique_2(1,2):  0.03573 x(0,2) + 0.07236 x(1,2) >= 1
cut_clique_2(2,2):  0.03537 x(0,2) + 0.07236 x(1,2) >= 1
cut_clique_2(3,2):  0.03813 x(0,2) + 0.06848 x(1,2) >= 1
cut_clique_2(4,2):  0.03813 x(0,2) + 0.06711 x(1,2) >= 1
cut_clique_2(5,2):  0.04232 x(0,2) + 0.06711 x(1,2) >= 1
cut_clique_2(6,2):  0.04020 x(0,2) + 0.06711 x(1,2) >= 1
cut_clique_2(7,2):  0.03980 x(0,2) + 0.06711 x(1,2) >= 1
cut_clique_2(8,2):  0.03940 x(0,2) + 0.06711 x(1,2) >= 1
cut_clique_2(9,2):  0.03822 x(0,2) + 0.06711 x(1,2) >= 1
cut_clique_2(10,2):  0.04128 x(0,2) + 0.06711 x(1,2) >= 1
cut_clique_2(11,2):  0.04293 x(0,2) + 0.06711 x(1,2) >= 1
cut_clique_2(12,2):  0.03821 x(0,2) + 0.06711 x(1,2) >= 1
cut_clique_2(13,2):  0.04050 x(0,2) + 0.06711 x(1,2) >= 1
cut_clique_2(14,2):  0.04496 x(0,2) + 0.06711 x(1,2) >= 1
cut_clique_2(15,2):  0.04001 x(0,2) + 0.06693 x(1,2) >= 1
cut_clique_2(16,2):  0.03881 x(0,2) + 0.06693 x(1,2) >= 1
cut_clique_2(17,2):  0.03842 x(0,2) + 0.06693 x(1,2) >= 1
cut_clique_2(18,2):  0.04720 x(0,2) + 0.05196 x(1,2) >= 1
cut_clique_2(19,2):  0.03573 x(0,2) + 0.07228 x(1,2) >= 1
cut_clique_2(20,2):  0.04720 x(0,2) + 0.05412 x(1,2) >= 1
cut_clique_2(21,2):  0.04010 x(0,2) + 0.06651 x(1,2) >= 1
cut_clique_2(22,2):  0.04010 x(0,2) + 0.06319 x(1,2) >= 1
cut_clique_2(23,2):  0.04010 x(0,2) + 0.06887 x(1,2) >= 1
cut_clique_2(24,2):  0.03907 x(0,2) + 0.06887 x(1,2) >= 1
cut_clique_2(25,2):  0.03946 x(0,2) + 0.06887 x(1,2) >= 1
cut_clique_2(26,2):  0.03946 x(0,2) + 0.07025 x(1,2) >= 1
cut_clique_2(27,2):  0.04275 x(0,2) + 0.06550 x(1,2) >= 1
cut_clique_2(28,2):  0.03976 x(0,2) + 0.06550 x(1,2) >= 1
cut_clique_2(29,2):  0.03936 x(0,2) + 0.06550 x(1,2) >= 1
cut_clique_2(30,2):  0.03936 x(0,2) + 0.06484 x(1,2) >= 1
cut_clique_2(31,2):  0.03936 x(0,2) + 0.06938 x(1,2) >= 1
cut_clique_2(32,2):  0.03779 x(0,2) + 0.07216 x(1,2) >= 1
cut_clique_2(33,2):  0.04720 x(0,2) + 0.04884 x(1,2) >= 1
cut_clique_2(34,2):  0.03816 x(0,2) + 0.07072 x(1,2) >= 1
cut_clique_2(35,2):  0.03816 x(0,2) + 0.06718 x(1,2) >= 1
cut_clique_2(36,2):  0.03424 x(0,2) + 0.07465 x(1,2) >= 1
cut_clique_2(37,2):  0.04538 x(0,2) + 0.05412 x(1,2) >= 1
cut_clique_2(38,2):  0.03634 x(0,2) + 0.07316 x(1,2) >= 1
cut_clique_2(39,2):  0.03634 x(0,2) + 0.07097 x(1,2) >= 1
cut_clique_2(40,2):  0.04106 x(0,2) + 0.06696 x(1,2) >= 1
cut_clique_2(41,2):  0.04476 x(0,2) + 0.06696 x(1,2) >= 1
cut_clique_2(42,2):  0.04879 x(0,2) + 0.06093 x(1,2) >= 1
cut_clique_2(43,2):  0.04879 x(0,2) + 0.05666 x(1,2) >= 1
cut_clique_2(44,2):  0.04635 x(0,2) + 0.05666 x(1,2) >= 1
cut_clique_2(45,2):  0.04449 x(0,2) + 0.05666 x(1,2) >= 1
cut_clique_2(46,2):  0.04449 x(0,2) + 0.05553 x(1,2) >= 1
cut_clique_2(47,2):  0.04449 x(0,2) + 0.05664 x(1,2) >= 1
cut_clique_2(48,2):  0.04449 x(0,2) + 0.05947 x(1,2) >= 1
cut_clique_2(49,2):  0.04538 x(0,2) + 0.05947 x(1,2) >= 1
cut_clique_3(0,1):  0.19279 x(0,1) + 0.14310 x(2,1) >= 1
cut_clique_3(1,1):  0.21475 x(0,1) + 0.14310 x(2,1) >= 1
cut_clique_3(2,1):  0.44757 x(0,1) + 0.14299 x(2,1) >= 1
cut_clique_3(3,1):  0.18245 x(0,1) + 0.14310 x(2,1) >= 1
cut_clique_3(4,1):  0.15965 x(0,1) + 0.14310 x(2,1) >= 1
cut_clique_3(5,1):  0.16946 x(0,1) + 0.14310 x(2,1) >= 1
cut_clique_3(6,1):  0.20179 x(0,1) + 0.14310 x(2,1) >= 1
cut_clique_3(7,1):  0.28050 x(0,1) + 0.14310 x(2,1) >= 1
cut_clique_3(8,1):  0.16878 x(0,1) + 0.14310 x(2,1) >= 1
cut_clique_3(9,1):  0.43951 x(0,1) + 0.14303 x(2,1) >= 1
cut_clique_3(10,1):  0.22568 x(0,1) + 0.14310 x(2,1) >= 1
cut_clique_3(11,1):  0.24789 x(0,1) + 0.14310 x(2,1) >= 1
cut_clique_3(12,1):  0.50544 x(0,1) + 0.14303 x(2,1) >= 1
cut_clique_3(13,1):  0.45652 x(0,1) + 0.14299 x(2,1) >= 1
cut_clique_3(14,1):  0.40631 x(0,1) + 0.14299 x(2,1) >= 1
cut_clique_3(15,1):  0.16122 x(0,1) + 0.14310 x(2,1) >= 1
cut_clique_3(16,1):  0.23167 x(0,1) + 0.14310 x(2,1) >= 1
cut_clique_3(17,1):  0.43031 x(0,1) + 0.14296 x(2,1) >= 1
cut_clique_3(18,1):  0.16604 x(0,1) + 0.14310 x(2,1) >= 1
cut_clique_3(19,1):  0.39962 x(0,1) + 0.14299 x(2,1) >= 1
cut_clique_3(20,1):  0.18289 x(0,1) + 0.14310 x(2,1) >= 1
cut_clique_3(21,1):  0.16180 x(0,1) + 0.14310 x(2,1) >= 1
cut_clique_3(22,1):  0.17119 x(0,1) + 0.14310 x(2,1) >= 1
cut_clique_3(23,1):  0.18149 x(0,1) + 0.14310 x(2,1) >= 1
cut_clique_3(24,1):  0.45489 x(0,1) + 0.14303 x(2,1) >= 1
cut_clique_3(25,1):  0.18315 x(0,1) + 0.14310 x(2,1) >= 1
cut_clique_3(26,1):  0.27268 x(0,1) + 0.14310 x(2,1) >= 1
cut_clique_3(27,1):  0.18607 x(0,1) + 0.14310 x(2,1) >= 1
cut_clique_3(28,1):  0.21665 x(0,1) + 0.14310 x(2,1) >= 1
cut_clique_3(29,1):  0.16502 x(0,1) + 0.14310 x(2,1) >= 1
cut_clique_3(30,1):  0.15904 x(0,1) + 0.14310 x(2,1) >= 1
cut_clique_3(31,1):  0.16741 x(0,1) + 0.14310 x(2,1) >= 1
cut_clique_3(32,1):  0.18810 x(0,1) + 0.14310 x(2,1) >= 1
cut_clique_3(33,1):  0.26177 x(0,1) + 0.14310 x(2,1) >= 1
cut_clique_3(34,1):  0.44901 x(0,1) + 0.14299 x(2,1) >= 1
cut_clique_3(35,1):  0.42671 x(0,1) + 0.14303 x(2,1) >= 1
cut_clique_3(36,1):  0.15920 x(0,1) + 0.14310 x(2,1) >= 1
cut_clique_3(37,1):  0.20850 x(0,1) + 0.14310 x(2,1) >= 1
cut_clique_3(38,1):  0.17435 x(0,1) + 0.14310 x(2,1) >= 1
cut_clique_3(39,1):  0.16911 x(0,1) + 0.14310 x(2,1) >= 1
cut_clique_3(40,1):  0.49890 x(0,1) + 0.14299 x(2,1) >= 1
cut_clique_3(41,1):  0.17734 x(0,1) + 0.14310 x(2,1) >= 1
cut_clique_3(42,1):  0.24699 x(0,1) + 0.14310 x(2,1) >= 1
cut_clique_3(43,1):  0.20146 x(0,1) + 0.14310 x(2,1) >= 1
cut_clique_3(44,1):  0.19170 x(0,1) + 0.14310 x(2,1) >= 1
cut_clique_3(45,1):  0.24267 x(0,1) + 0.14310 x(2,1) >= 1
cut_clique_3(46,1):  0.38099 x(0,1) + 0.14303 x(2,1) >= 1
cut_clique_3(47,1):  0.19414 x(0,1) + 0.14310 x(2,1) >= 1
cut_clique_3(48,1):  0.23464 x(0,1) + 0.14310 x(2,1) >= 1
cut_clique_3(49,1):  0.21662 x(0,1) + 0.14310 x(2,1) >= 1
cut_clique_3(0,2):  0.04935 x(0,2) + 0.04677 x(1,2) >= 1
cut_clique_3(1,2):  0.05633 x(0,2) + 0.03168 x(1,2) + 0.00836 x(2,2) >= 1
cut_clique_3(2,2):  0.05633 x(0,2) + 0.03136 x(1,2) + 0.00836 x(2,2) >= 1
cut_clique_3(3,2):  0.05520 x(0,2) + 0.03136 x(1,2) + 0.00836 x(2,2) >= 1
cut_clique_3(4,2):  0.05645 x(0,2) + 0.03136 x(1,2) + 0.00865 x(2,2) >= 1
cut_clique_3(5,2):  0.05645 x(0,2) + 0.03136 x(1,2) + 0.00899 x(2,2) >= 1
cut_clique_3(6,2):  0.05645 x(0,2) + 0.03136 x(1,2) + 0.00890 x(2,2) >= 1
cut_clique_3(7,2):  0.05645 x(0,2) + 0.03136 x(1,2) + 0.00962 x(2,2) >= 1
cut_clique_3(8,2):  0.05588 x(0,2) + 0.03136 x(1,2) + 0.00962 x(2,2) >= 1
cut_clique_3(9,2):  0.05588 x(0,2) + 0.03136 x(1,2) + 0.00904 x(2,2) >= 1
cut_clique_3(10,2):  0.05532 x(0,2) + 0.03136 x(1,2) + 0.00904 x(2,2) >= 1
cut_clique_3(11,2):  0.05311 x(0,2) + 0.03136 x(1,2) + 0.00904 x(2,2) >= 1
cut_clique_3(12,2):  0.05311 x(0,2) + 0.03199 x(1,2) + 0.00904 x(2,2) >= 1
cut_clique_3(13,2):  0.05311 x(0,2) + 0.03199 x(1,2) + 0.00976 x(2,2) >= 1
cut_clique_3(14,2):  0.05311 x(0,2) + 0.03274 x(1,2) + 0.00822 x(2,2) >= 1
cut_clique_3(15,2):  0.05311 x(0,2) + 0.03274 x(1,2) + 0.00813 x(2,2) >= 1
cut_clique_3(16,2):  0.05311 x(0,2) + 0.03274 x(1,2) + 0.00838 x(2,2) >= 1
cut_clique_3(17,2):  0.05311 x(0,2) + 0.03274 x(1,2) + 0.00905 x(2,2) >= 1
cut_clique_3(18,2):  0.05701 x(0,2) + 0.03381 x(1,2) + 0.00639 x(2,2) >= 1
cut_clique_3(19,2):  0.05644 x(0,2) + 0.03381 x(1,2) + 0.00639 x(2,2) >= 1
cut_clique_3(20,2):  0.05626 x(0,2) + 0.03381 x(1,2) + 0.00639 x(2,2) >= 1
cut_clique_3(21,2):  0.05681 x(0,2) + 0.03408 x(1,2) + 0.00629 x(2,2) >= 1
cut_clique_3(22,2):  0.05625 x(0,2) + 0.03544 x(1,2) + 0.00560 x(2,2) >= 1
cut_clique_3(23,2):  0.05625 x(0,2) + 0.03544 x(1,2) + 0.00532 x(2,2) >= 1
cut_clique_3(24,2):  0.05816 x(0,2) + 0.03200 x(1,2) + 0.00702 x(2,2) >= 1
cut_clique_3(25,2):  0.05816 x(0,2) + 0.03200 x(1,2) + 0.00695 x(2,2) >= 1
cut_clique_3(26,2):  0.05816 x(0,2) + 0.03200 x(1,2) + 0.00751 x(2,2) >= 1
cut_clique_3(27,2):  0.04803 x(0,2) + 0.04764 x(1,2) >= 1
cut_clique_3(28,2):  0.04799 x(0,2) + 0.04771 x(1,2) >= 1
cut_clique_4(0,1):  0.10296 x(0,1) + 0.59970 x(1,1) + 0.05475 x(2,1) >= 1
cut_clique_4(1,1):  0.10627 x(0,1) + 0.94465 x(1,1) + 0.05266 x(2,1) >= 1
cut_clique_4(2,1):  0.10193 x(0,1) + 0.70453 x(1,1) + 0.05420 x(2,1) >= 1
cut_clique_4(3,1):  0.10627 x(0,1) + 0.75621 x(1,1) + 0.05266 x(2,1) >= 1
cut_clique_4(4,1):  0.10296 x(0,1) + 0.45242 x(1,1) + 0.05420 x(2,1) >= 1
cut_clique_4(5,1):  0.10627 x(0,1) + 0.98697 x(1,1) + 0.05266 x(2,1) >= 1
cut_clique_4(6,1):  0.10296 x(0,1) + 0.55728 x(1,1) + 0.05475 x(2,1) >= 1
cut_clique_4(7,1):  0.10193 x(0,1) + 0.72005 x(1,1) + 0.05420 x(2,1) >= 1
cut_clique_4(8,1):  0.10193 x(0,1) + 0.56671 x(1,1) + 0.05420 x(2,1) >= 1
cut_clique_4(9,1):  0.10296 x(0,1) + 0.63797 x(1,1) + 0.05475 x(2,1) >= 1
cut_clique_4(10,1):  0.10627 x(0,1) + 0.75209 x(1,1) + 0.05266 x(2,1) >= 1
cut_clique_4(11,1):  0.10296 x(0,1) + 0.60186 x(1,1) + 0.05475 x(2,1) >= 1
cut_clique_4(12,1):  0.10193 x(0,1) + 0.78267 x(1,1) + 0.05420 x(2,1) >= 1
cut_clique_4(13,1):  0.10627 x(0,1) + 0.89814 x(1,1) + 0.05266 x(2,1) >= 1
cut_clique_4(14,1):  0.10193 x(0,1) + 0.70220 x(1,1) + 0.05420 x(2,1) >= 1
cut_clique_4(15,1):  0.10627 x(0,1) + 0.93530 x(1,1) + 0.05266 x(2,1) >= 1
cut_clique_4(16,1):  0.10193 x(0,1) + 0.41838 x(1,1) + 0.05420 x(2,1) >= 1
cut_clique_4(17,1):  0.10193 x(0,1) + 0.41817 x(1,1) + 0.05420 x(2,1) >= 1
cut_clique_4(18,1):  0.10193 x(0,1) + 0.74433 x(1,1) + 0.05420 x(2,1) >= 1
cut_clique_4(19,1):  0.10627 x(0,1) + 0.78369 x(1,1) + 0.05266 x(2,1) >= 1
cut_clique_4(20,1):  0.10627 x(0,1) + 0.81330 x(1,1) + 0.05266 x(2,1) >= 1
cut_clique_4(21,1):  0.10627 x(0,1) + 0.81763 x(1,1) + 0.05266 x(2,1) >= 1
cut_clique_4(22,1):  0.10193 x(0,1) + 0.63472 x(1,1) + 0.05420 x(2,1) >= 1
cut_clique_4(23,1):  0.10193 x(0,1) + 0.42075 x(1,1) + 0.05420 x(2,1) >= 1
cut_clique_4(24,1):  0.10193 x(0,1) + 0.69967 x(1,1) + 0.05420 x(2,1) >= 1
cut_clique_4(25,1):  0.10193 x(0,1) + 0.76326 x(1,1) + 0.05420 x(2,1) >= 1
cut_clique_4(26,1):  0.10193 x(0,1) + 0.74540 x(1,1) + 0.05420 x(2,1) >= 1
cut_clique_4(27,1):  0.10627 x(0,1) + 0.96196 x(1,1) + 0.05266 x(2,1) >= 1
cut_clique_4(28,1):  0.10296 x(0,1) + 0.44869 x(1,1) + 0.05420 x(2,1) >= 1
cut_clique_4(29,1):  0.10627 x(0,1) + 0.75222 x(1,1) + 0.05266 x(2,1) >= 1
cut_clique_4(30,1):  0.10627 x(0,1) + 0.77240 x(1,1) + 0.05266 x(2,1) >= 1
cut_clique_4(31,1):  0.10193 x(0,1) + 0.40813 x(1,1) + 0.05420 x(2,1) >= 1
cut_clique_4(32,1):  0.10193 x(0,1) + 0.48222 x(1,1) + 0.05420 x(2,1) >= 1
cut_clique_4(33,1):  0.10296 x(0,1) + 0.54651 x(1,1) + 0.05475 x(2,1) >= 1
cut_clique_4(34,1):  0.10193 x(0,1) + 0.54491 x(1,1) + 0.05420 x(2,1) >= 1
cut_clique_4(35,1):  0.10193 x(0,1) + 0.85416 x(1,1) + 0.05420 x(2,1) >= 1
cut_clique_4(36,1):  0.10296 x(0,1) + 0.54105 x(1,1) + 0.05475 x(2,1) >= 1
cut_clique_4(37,1):  0.10193 x(0,1) + 0.44486 x(1,1) + 0.05420 x(2,1) >= 1
cut_clique_4(38,1):  0.10296 x(0,1) + 0.47113 x(1,1) + 0.05420 x(2,1) >= 1
cut_clique_4(39,1):  0.10296 x(0,1) + 0.44869 x(1,1) + 0.05475 x(2,1) >= 1
cut_clique_4(40,1):  0.10193 x(0,1) + 0.36381 x(1,1) + 0.05420 x(2,1) >= 1
cut_clique_4(41,1):  0.10627 x(0,1) + 0.91386 x(1,1) + 0.05266 x(2,1) >= 1
cut_clique_4(42,1):  0.10193 x(0,1) + 0.76264 x(1,1) + 0.05420 x(2,1) >= 1
cut_clique_4(43,1):  0.10296 x(0,1) + 0.51574 x(1,1) + 0.05475 x(2,1) >= 1
cut_clique_4(44,1):  0.10627 x(0,1) + 0.76727 x(1,1) + 0.05266 x(2,1) >= 1
cut_clique_4(45,1):  0.10193 x(0,1) + 0.45242 x(1,1) + 0.05420 x(2,1) >= 1
cut_clique_4(46,1):  0.10193 x(0,1) + 0.64817 x(1,1) + 0.05420 x(2,1) >= 1
cut_clique_4(47,1):  0.10193 x(0,1) + 0.42675 x(1,1) + 0.05420 x(2,1) >= 1
cut_clique_4(48,1):  0.10296 x(0,1) + 0.46642 x(1,1) + 0.05420 x(2,1) >= 1
cut_clique_4(49,1):  0.10627 x(0,1) + 0.77593 x(1,1) + 0.05266 x(2,1) >= 1
Bounds
 0 <= C <= 44
 14 <= x(0,0) <= 43
 0 <= y(0,1,0) <= 1
 0 <= y(1,0,0) <= 1
 0 <= v(0,1,0)p <= 36
 0 <= v(0,1,0)n <= 23
 0 <= v(1,0,0)p <= 19
 0 <= v(1,0,0)n <= 40
 0 <= u(0,1,0)p <= 440
 0 <= u(0,1,0)n <= 440
 0 <= u(1,0,0)p <= 440
 0 <= u(1,0,0)n <= 440
 0 <= y(0,2,0) <= 1
 0 <= y(2,0,0) <= 1
 0 <= v(0,2,0)p <= 28
 0 <= v(0,2,0)n <= 30
 0 <= v(2,0,0)p <= 27
 0 <= v(2,0,0)n <= 31
 0 <= u(0,2,0)p <= 440
 0 <= u(0,2,0)n <= 440
 0 <= u(2,0,0)p <= 440
 0 <= u(2,0,0)n <= 440
 4 <= x(1,0) <= 34
 0 <= y(1,2,0) <= 1
 0 <= y(2,1,0) <= 1
 0 <= v(1,2,0)p <= 19
 0 <= v(1,2,0)n <= 40
 0 <= v(2,1,0)p <= 35
 0 <= v(2,1,0)n <= 24
 0 <= u(1,2,0)p <= 440
 0 <= u(1,2,0)n <= 440
 0 <= u(2,1,0)p <= 440
 0 <= u(2,1,0)n <= 440
 13 <= x(2,0) <= 42
 0 <= x(0,1) <= 29
 0 <= y(0,1,1) <= 1
 0 <= y(1,0,1) <= 1
 0 <= v(0,1,1)p <= 25
 0 <= v(0,1,1)n <= 34
 0 <= v(1,0,1)p <= 23
 0 <= v(1,0,1)n <= 36
 0 <= u(0,1,1)p <= 440
 0 <= u(0,1,1)n <= 440
 0 <= u(1,0,1)p <= 440
 0 <= u(1,0,1)n <= 440
 0 <= y(0,2,1) <= 1
 0 <= y(2,0,1) <= 1
 0 <= v(0,2,1)p <= 22
 0 <= v(0,2,1)n <= 36
 0 <= v(2,0,1)p <= 22
 0 <= v(2,0,1)n <= 36
 0 <= u(0,2,1)p <= 440
 0 <= u(0,2,1)n <= 440
 0 <= u(2,0,1)p <= 440
 0 <= u(2,0,1)n <= 440
 0 <= x(1,1) <= 30
 0 <= y(1,2,1) <= 1
 0 <= y(2,1,1) <= 1
 0 <= v(1,2,1)p <= 23
 0 <= v(1,2,1)n <= 36
 0 <= v(2,1,1)p <= 25
 0 <= v(2,1,1)n <= 34
 0 <= u(1,2,1)p <= 440
 0 <= u(1,2,1)n <= 440
 0 <= u(2,1,1)p <= 440
 0 <= u(2,1,1)n <= 440
 0 <= x(2,1) <= 29
 7 <= x(0,2) <= 36
 0 <= y(0,1,2) <= 1
 0 <= y(1,0,2) <= 1
 0 <= v(0,1,2)p <= 22
 0 <= v(0,1,2)n <= 37
 0 <= v(1,0,2)p <= 23
 0 <= v(1,0,2)n <= 36
 0 <= u(0,1,2)p <= 440
 0 <= u(0,1,2)n <= 440
 0 <= u(1,0,2)p <= 440
 0 <= u(1,0,2)n <= 440
 0 <= y(0,2,2) <= 1
 0 <= y(2,0,2) <= 1
 0 <= v(0,2,2)p <= 23
 0 <= v(0,2,2)n <= 35
 0 <= v(2,0,2)p <= 22
 0 <= v(2,0,2)n <= 36
 0 <= u(0,2,2)p <= 440
 0 <= u(0,2,2)n <= 440
 0 <= u(2,0,2)p <= 440
 0 <= u(2,0,2)n <= 440
 7 <= x(1,2) <= 37
 0 <= y(1,2,2) <= 1
 0 <= y(2,1,2) <= 1
 0 <= v(1,2,2)p <= 24
 0 <= v(1,2,2)n <= 35
 0 <= v(2,1,2)p <= 22
 0 <= v(2,1,2)n <= 37
 0 <= u(1,2,2)p <= 440
 0 <= u(1,2,2)n <= 440
 0 <= u(2,1,2)p <= 440
 0 <= u(2,1,2)n <= 440
 7 <= x(2,2) <= 36
End
